
Gurobi 13.0.0 (mac64[arm]) logging started Tue Nov 18 10:05:30 2025

Set parameter LogFile to value "/Users/jjung404/PyProjects/qiga/data/steiner-opt/SP/w13c29_log.txt"
Gurobi Optimizer version 13.0.0 build v13.0.0rc1 (mac64[arm] - Darwin 24.6.0 24G231)

CPU model: Apple M3
Thread count: 8 physical cores, 8 logical processors, using up to 8 threads

Optimize a model with 406 rows, 2262 columns and 2262 nonzeros (Min)
Model fingerprint: 0x36b3ba75
Model has 2262 linear objective coefficients
Variable types: 0 continuous, 2262 integer (2262 binary)
Coefficient statistics:
  Matrix range     [1e+00, 1e+00]
  Objective range  [1e+00, 1e+00]
  Bounds range     [1e+00, 1e+00]
  RHS range        [1e+00, 1e+00]
Found heuristic solution: objective 406.0000000
Presolve removed 406 rows and 2262 columns
Presolve time: 0.00s
Presolve: All rows and columns removed

Explored 0 nodes (0 simplex iterations) in 0.00 seconds (0.00 work units)
Thread count was 1 (of 8 available processors)

Solution count 1: 406 

Optimal solution found (tolerance 1.00e-04)
Best objective 4.060000000000e+02, best bound 4.060000000000e+02, gap 0.0000%
